results/real/sos1/jan_8_325.out
Version identifier: 22.1.1.0 | 2022-11-28 | 9160aff4d
CPXPARAM_Threads                                 1
CPXPARAM_MIP_Strategy_VariableSelect             3
CPXPARAM_TimeLimit                               599.99997746300005
1 of 1 MIP starts provided solutions.
MIP start 'm1' defined initial solution with objective 215.0000.
Tried aggregator 1 time.
MIP Presolve eliminated 338 rows and 975 columns.
MIP Presolve modified 29 coefficients.
Reduced MIP has 1625 rows, 3250 columns, and 73532 nonzeros.
Reduced MIP has 3250 binaries, 0 generals, 0 SOSs, and 0 indicators.
Presolve time = 0.05 sec. (123.94 ticks)
Probing time = 0.01 sec. (12.55 ticks)
Tried aggregator 1 time.
Detecting symmetries...
MIP Presolve modified 8 coefficients.
Reduced MIP has 1625 rows, 3250 columns, and 73660 nonzeros.
Reduced MIP has 3250 binaries, 0 generals, 0 SOSs, and 0 indicators.
Presolve time = 0.04 sec. (111.76 ticks)
Probing time = 0.01 sec. (12.56 ticks)
Clique table members: 972.
MIP emphasis: balance optimality and feasibility.
MIP search method: dynamic search.
Parallel mode: none, using 1 thread.
Root relaxation solution time = 0.01 sec. (23.27 ticks)

        Nodes                                         Cuts/
   Node  Left     Objective  IInf  Best Integer    Best Bound    ItCnt     Gap

*     0+    0                          215.0000    52975.0000              --- 
*     0     0      integral     0      325.0000      325.0000      403    0.00%
Elapsed time = 0.14 sec. (332.02 ticks, tree = 0.00 MB, solutions = 2)

Root node processing (before b&c):
  Real time             =    0.14 sec. (332.18 ticks)
Sequential b&c:
  Real time             =    0.00 sec. (0.00 ticks)
                          ------------
Total (root+branch&cut) =    0.14 sec. (332.18 ticks)
Primal:	325
Dual:	325
Status:	Optimal
Time:	0.15
Sequence:
	1
	9
	9
	4
	2
	9
	9
	9
	9
	0
	9
	9
	9
	9
	9
	9
	2
	4
	1
	4
	9
	4
	4
	0
	4
	4
	0
	4
	4
	0
	4
	9
	4
	9
	9
	9
	4
	4
	9
	4
	4
	9
	9
	4
	4
	9
	2
	9
	4
	2
	4
	9
	9
	9
	9
	9
	0
	9
	9
	9
	9
	9
	2
	9
	9
	9
	2
	9
	9
	9
	9
	0
	9
	9
	9
	4
	9
	4
	9
	6
	9
	5
	1
	4
	0
	9
	1
	4
	0
	4
	1
	0
	1
	4
	0
	5
	4
	0
	1
	9
	4
	4
	0
	3
	1
	4
	1
	0
	4
	4
	9
	1
	0
	6
	4
	1
	1
	4
	0
	4
	4
	1
	4
	4
	0
	4
	4
	9
	4
	4
	0
	4
	9
	4
	4
	9
	4
	4
	9
	4
	4
	9
	4
	4
	9
	4
	0
	4
	4
	9
	4
	0
	4
	4
	9
	0
	9
	4
	4
	1
	4
	4
	9
	9
	4
	9
	4
	9
	0
	9
	9
	9
	0
	4
	9
	4
	9
	4
	9
	4
	4
	9
	4
	4
	9
	5
	6
	1
	9
	8
	4
	9
	4
	4
	0
	6
	4
	1
	4
	4
	9
	0
	4
	4
	0
	6
	1
	4
	0
	5
	1
	9
	6
	1
	1
	4
	4
	1
	0
	4
	5
	1
	1
	4
	0
	4
	4
	9
	0
	9
	1
	1
	1
	4
	1
	1
	1
	2
	9
	4
	8
	9
	1
	9
	9
	4
	4
	9
	9
	4
	9
	0
	9
	9
	9
	9
	9
	4
	0
	9
	4
	9
	9
	9
	9
	9
	9
	9
	0
	9
	5
	0
	9
	1
	2
	9
	9
	9
	6
	9
	9
	9
	9
	0
	9
	9
	0
	4
	9
	9
	0
	9
	9
	0
	9
	9
	0
	9
	9
	9
	9
	9
	9
	4
	9
	9
	4
	0
	9
	9
	0
	9
	9
	9
	9
	9
	4
	9
	4
	9
	9
	1
	0
	4
	1
